experiments/knapsack_bounded/knapsack_bounded_5_1.mps
NAME
ROWS
 N  OBJ
 L  c1
 L  c2
 L  c3
 L  c4
 L  c5
 L  c6
COLUMNS
    MARKER    'MARKER'                 'INTORG'
    x[1]      c1        965
    x[1]      c2        1
    x[1]      OBJ       -69
    x[2]      c1        618
    x[2]      c3        1
    x[2]      OBJ       -796
    x[3]      c1        231
    x[3]      c4        1
    x[3]      OBJ       -725
    x[4]      c1        216
    x[4]      c5        1
    x[4]      OBJ       -868
    x[5]      c1        531
    x[5]      c6        1
    x[5]      OBJ       -980
    MARKER    'MARKER'                 'INTEND'
RHS
    rhs       c1        1280
    rhs       c2        10
    rhs       c3        7
    rhs       c4        4
    rhs       c5        8
    rhs       c6        6
RANGES
BOUNDS
 LO bounds    x[1]      0
 PL bounds    x[1]
 LO bounds    x[2]      0
 PL bounds    x[2]
 LO bounds    x[3]      0
 PL bounds    x[3]
 LO bounds    x[4]      0
 PL bounds    x[4]
 LO bounds    x[5]      0
 PL bounds    x[5]
ENDATA
