experiments/knapsack_bounded/knapsack_bounded_5_1.mps.log
Algorithm statistics:
zero_reductions => 9
max_basis_size => 19
queued_pairs => 0
built_pairs => 23
reduced_pairs => 23
eliminated_by_truncation => 0
removed_by_autoreduction => 0
eliminated_by_gcd => 148
time => 0.005669799
memory => 0.0012810230255126953
4ti2 results
4ti2 time => 0.017337779
